\Problem name: ClpDefaultName

Minimize
OBJROW: x_0 + x_1 + x_2 + x_3
Subject To
R0000000:  x_0 + x_3 >= 1
R0000001:  x_0 + x_1 + x_3 >= 1
R0000002:  x_1 >= 1
R0000003:  x_1 + x_2 >= 1
R0000004:  x_2 + x_3 >= 1
Bounds
 0 <= x_0 <= 1
 0 <= x_1 <= 1
 0 <= x_2 <= 1
 0 <= x_3 <= 1
Integers
x_0 x_1 x_2 x_3 
End
